unsat
(:SPACER-cluster-out-of-gas           24
 :SPACER-concretize                   106
 :SPACER-conj                         28
 :SPACER-expand-pob-undef             54
 :SPACER-inductive-gen                463
 :SPACER-inductive-gen-weaken-fail    755
 :SPACER-inductive-level              54
 :SPACER-max-depth                    54
 :SPACER-max-query-lvl                54
 :SPACER-non-local-gen                209
 :SPACER-num-active-lemmas            187
 :SPACER-num-cant-abstract            16
 :SPACER-num-ctp-blocked              979
 :SPACER-num-invariants               50
 :SPACER-num-is_invariant             7457
 :SPACER-num-lemma-jumped             38
 :SPACER-num-lemmas                   587
 :SPACER-num-non-lin                  28
 :SPACER-num-pobs                     364
 :SPACER-num-propagations             5896
 :SPACER-num-queries                  425
 :SPACER-num-reach-queries            5
 :SPACER-num-reuse-reach-facts        4
 :SPACER-pob-out-of-gas               7
 :SPACER-subsume-failed               12
 :SPACER-subsume-pob                  57
 :SPACER-subsume-success              100
 :added-eqs                           1050044
 :arith-assert-diseq                  47706
 :arith-assert-lower                  1291468
 :arith-assert-upper                  1048032
 :arith-bound-prop                    166370
 :arith-branch-var                    1240
 :arith-conflicts                     2992
 :arith-eq-adapter                    117866
 :arith-fixed-eqs                     261418
 :arith-gcd-conflicts                 42
 :arith-gcd-tests                     216974
 :arith-gomory-cuts                   1080
 :arith-ineq-splits                   1240
 :arith-num-rows                      864
 :arith-offset-eqs                    198818
 :arith-patches                       2424
 :arith-patches_succ                  10
 :arith-pivots                        69916
 :arith-row-summations                5332946
 :arith-tableau-max-columns           1146
 :arith-tableau-max-rows              864
 :conflicts                           22098
 :decisions                           1950210
 :del-clause                          363880
 :final-checks                        6028
 :iuc_solver.num_proxies              1165
 :max-memory                          188.65
 :memory                              179.61
 :minimized-lits                      14420
 :mk-bool-var                         321648
 :mk-clause                           466162
 :num-allocs                          153116013117.00
 :num-checks                          19598
 :pool_solver.checks                  9799
 :pool_solver.checks.sat              471
 :pool_solver.checks.undef            1315
 :propagations                        7817846
 :rlimit-count                        122804416
 :time                                33.92
 :time.iuc_solver.get_iuc             1.08
 :time.iuc_solver.get_iuc.hyp_reduce1 0.41
 :time.iuc_solver.get_iuc.hyp_reduce2 0.58
 :time.iuc_solver.get_iuc.learn_core  0.21
 :time.pool_solver.proof              0.14
 :time.pool_solver.smt.total          26.37
 :time.pool_solver.smt.total.sat      5.84
 :time.pool_solver.smt.total.undef    7.22
 :time.spacer.ctp                     0.17
 :time.spacer.init_rules              0.00
 :time.spacer.mbp                     0.10
 :time.spacer.solve                   33.81
 :time.spacer.solve.propagate         16.54
 :time.spacer.solve.reach             17.27
 :time.spacer.solve.reach.children    0.58
 :time.spacer.solve.reach.cluster     2.28
 :time.spacer.solve.reach.gen.global  1.53
 :time.spacer.solve.reach.gen.ind     4.66
 :time.spacer.solve.reach.is-reach    0.07)
(:max-memory   188.65
 :memory       179.61
 :num-allocs   153116013117.00
 :rlimit-count 122804416
 :time         33.92
 :total-time   33.93)
